linklist/analysis_behavior/ErrorPath.0.txt
none:	N23 -{INIT GLOBAL VARS}-> N26
/usr/lib/gcc/x86_64-linux-gnu/4.4.5/include/stddef.h, line 211:	N26 -{typedef unsigned long int size_t;}-> N27
/usr/include/bits/types.h, line 31:	N27 -{typedef unsigned char __u_char;}-> N28
/usr/include/bits/types.h, line 32:	N28 -{typedef unsigned short int __u_short;}-> N29
/usr/include/bits/types.h, line 33:	N29 -{typedef unsigned int __u_int;}-> N30
/usr/include/bits/types.h, line 34:	N30 -{typedef unsigned long int __u_long;}-> N31
/usr/include/bits/types.h, line 37:	N31 -{typedef signed char __int8_t;}-> N32
/usr/include/bits/types.h, line 38:	N32 -{typedef unsigned char __uint8_t;}-> N33
/usr/include/bits/types.h, line 39:	N33 -{typedef signed short int __int16_t;}-> N34
/usr/include/bits/types.h, line 40:	N34 -{typedef unsigned short int __uint16_t;}-> N35
/usr/include/bits/types.h, line 41:	N35 -{typedef signed int __int32_t;}-> N36
/usr/include/bits/types.h, line 42:	N36 -{typedef unsigned int __uint32_t;}-> N37
/usr/include/bits/types.h, line 44:	N37 -{typedef signed long int __int64_t;}-> N38
/usr/include/bits/types.h, line 45:	N38 -{typedef unsigned long int __uint64_t;}-> N39
/usr/include/bits/types.h, line 53:	N39 -{typedef long int __quad_t;}-> N40
/usr/include/bits/types.h, line 54:	N40 -{typedef unsigned long int __u_quad_t;}-> N41
/usr/include/bits/types.h, line 134:	N41 -{typedef unsigned long int __dev_t;}-> N42
/usr/include/bits/types.h, line 135:	N42 -{typedef unsigned int __uid_t;}-> N43
/usr/include/bits/types.h, line 136:	N43 -{typedef unsigned int __gid_t;}-> N44
/usr/include/bits/types.h, line 137:	N44 -{typedef unsigned long int __ino_t;}-> N45
/usr/include/bits/types.h, line 138:	N45 -{typedef unsigned long int __ino64_t;}-> N46
/usr/include/bits/types.h, line 139:	N46 -{typedef unsigned int __mode_t;}-> N47
/usr/include/bits/types.h, line 140:	N47 -{typedef unsigned long int __nlink_t;}-> N48
/usr/include/bits/types.h, line 141:	N48 -{typedef long int __off_t;}-> N49
/usr/include/bits/types.h, line 142:	N49 -{typedef long int __off64_t;}-> N50
/usr/include/bits/types.h, line 143:	N50 -{typedef int __pid_t;}-> N51
/usr/include/bits/types.h, line 144:	N51 -{struct __anon_type_0 {   int __val[2]; } ;}-> N52
/usr/include/bits/types.h, line 144:	N52 -{typedef struct __anon_type_0 __fsid_t;}-> N53
/usr/include/bits/types.h, line 145:	N53 -{typedef long int __clock_t;}-> N54
/usr/include/bits/types.h, line 146:	N54 -{typedef unsigned long int __rlim_t;}-> N55
/usr/include/bits/types.h, line 147:	N55 -{typedef unsigned long int __rlim64_t;}-> N56
/usr/include/bits/types.h, line 148:	N56 -{typedef unsigned int __id_t;}-> N57
/usr/include/bits/types.h, line 149:	N57 -{typedef long int __time_t;}-> N58
/usr/include/bits/types.h, line 150:	N58 -{typedef unsigned int __useconds_t;}-> N59
/usr/include/bits/types.h, line 151:	N59 -{typedef long int __suseconds_t;}-> N60
/usr/include/bits/types.h, line 153:	N60 -{typedef int __daddr_t;}-> N61
/usr/include/bits/types.h, line 154:	N61 -{typedef long int __swblk_t;}-> N62
/usr/include/bits/types.h, line 155:	N62 -{typedef int __key_t;}-> N63
/usr/include/bits/types.h, line 158:	N63 -{typedef int __clockid_t;}-> N64
/usr/include/bits/types.h, line 161:	N64 -{typedef void *__timer_t;}-> N65
/usr/include/bits/types.h, line 164:	N65 -{typedef long int __blksize_t;}-> N66
/usr/include/bits/types.h, line 169:	N66 -{typedef long int __blkcnt_t;}-> N67
/usr/include/bits/types.h, line 170:	N67 -{typedef long int __blkcnt64_t;}-> N68
/usr/include/bits/types.h, line 173:	N68 -{typedef unsigned long int __fsblkcnt_t;}-> N69
/usr/include/bits/types.h, line 174:	N69 -{typedef unsigned long int __fsblkcnt64_t;}-> N70
/usr/include/bits/types.h, line 177:	N70 -{typedef unsigned long int __fsfilcnt_t;}-> N71
/usr/include/bits/types.h, line 178:	N71 -{typedef unsigned long int __fsfilcnt64_t;}-> N72
/usr/include/bits/types.h, line 180:	N72 -{typedef long int __ssize_t;}-> N73
/usr/include/bits/types.h, line 184:	N73 -{typedef __off64_t __loff_t;}-> N74
/usr/include/bits/types.h, line 185:	N74 -{typedef __quad_t *__qaddr_t;}-> N75
/usr/include/bits/types.h, line 186:	N75 -{typedef char *__caddr_t;}-> N76
/usr/include/bits/types.h, line 189:	N76 -{typedef long int __intptr_t;}-> N77
/usr/include/bits/types.h, line 192:	N77 -{typedef unsigned int __socklen_t;}-> N78
/usr/include/stdio.h, line 45:	N78 -{struct _IO_FILE ;}-> N79
/usr/include/stdio.h, line 49:	N79 -{typedef struct _IO_FILE FILE;}-> N80
/usr/include/stdio.h, line 65:	N80 -{typedef struct _IO_FILE __FILE;}-> N81
/usr/include/wchar.h, lines 86-94:	N81 -{union __anon_type_1 {   unsigned int __wch;   char __wchb[4]; } ;}-> N82
/usr/include/wchar.h, lines 83-95:	N82 -{struct __anon_type_2 {   int __count;   union __anon_type_1 __value; } ;}-> N83
/usr/include/wchar.h, lines 83-95:	N83 -{typedef struct __anon_type_2 __mbstate_t;}-> N84
/usr/include/_G_config.h, lines 22-26:	N84 -{struct __anon_type_3 {   __off_t __pos;   __mbstate_t __state; } ;}-> N85
/usr/include/_G_config.h, lines 22-26:	N85 -{typedef struct __anon_type_3 _G_fpos_t;}-> N86
/usr/include/_G_config.h, lines 27-31:	N86 -{struct __anon_type_4 {   __off64_t __pos;   __mbstate_t __state; } ;}-> N87
/usr/include/_G_config.h, lines 27-31:	N87 -{typedef struct __anon_type_4 _G_fpos64_t;}-> N88
/usr/include/_G_config.h, line 53:	N88 -{typedef int _G_int16_t;}-> N89
/usr/include/_G_config.h, line 54:	N89 -{typedef int _G_int32_t;}-> N90
/usr/include/_G_config.h, line 55:	N90 -{typedef unsigned int _G_uint16_t;}-> N91
/usr/include/_G_config.h, line 56:	N91 -{typedef unsigned int _G_uint32_t;}-> N92
/usr/lib/gcc/x86_64-linux-gnu/4.4.5/include/stdarg.h, line 40:	N92 -{typedef __builtin_va_list __gnuc_va_list;}-> N93
/usr/include/libio.h, line 170:	N93 -{struct _IO_jump_t ;}-> N94
/usr/include/libio.h, line 180:	N94 -{typedef void _IO_lock_t;}-> N95
/usr/include/libio.h, lines 186-194:	N95 -{struct _IO_marker {   struct _IO_marker *_next;   struct _IO_FILE *_sbuf;   int _pos; } ;}-> N96
/usr/include/libio.h, lines 206-212:	N96 -{enum __codecvt_result {   __codecvt_ok = 0,   __codecvt_partial = 1,   __codecvt_error = 2,   __codecvt_noconv = 3 } ;}-> N97
/usr/include/libio.h, lines 271-324:	N97 -{struct _IO_FILE {   int _flags;   char *_IO_read_ptr;   char *_IO_read_end;   char *_IO_read_base;   char *_IO_write_base;   char *_IO_write_ptr;   char *_IO_write_end;   char *_IO_buf_base;   char *_IO_buf_end;   char *_IO_save_base;   char *_IO_backup_base;   char *_IO_save_end;   struct _IO_marker *_markers;   struct _IO_FILE *_chain;   int _fileno;   int _flags2;   __off_t _old_offset;   unsigned short _cur_column;   signed char _vtable_offset;   char _shortbuf[1];   _IO_lock_t *_lock;   __off64_t _offset;   void *__pad1;   void *__pad2;   void *__pad3;   void *__pad4;   size_t __pad5;   int _mode;   char _unused2[40UL]; } ;}-> N98
/usr/include/libio.h, line 341:	N98 -{typedef struct _IO_FILE _IO_FILE;}-> N99
/usr/include/libio.h, line 344:	N99 -{struct _IO_FILE_plus ;}-> N100
/usr/include/libio.h, line 346:	N100 -{extern struct _IO_FILE_plus _IO_2_1_stdin_;}-> N101
/usr/include/libio.h, line 347:	N101 -{extern struct _IO_FILE_plus _IO_2_1_stdout_;}-> N102
/usr/include/libio.h, line 348:	N102 -{extern struct _IO_FILE_plus _IO_2_1_stderr_;}-> N103
/usr/include/libio.h, line 364:	N103 -{typedef __ssize_t  __io_read_fn(void *__cookie, char *__buf, size_t __nbytes);}-> N104
/usr/include/libio.h, lines 372-373:	N104 -{typedef __ssize_t  __io_write_fn(void *__cookie, const char *__buf, size_t __n);}-> N105
/usr/include/libio.h, line 381:	N105 -{typedef int __io_seek_fn(void *__cookie, __off64_t *__pos, int __w);}-> N106
/usr/include/libio.h, line 384:	N106 -{typedef int __io_close_fn(void *__cookie);}-> N107
/usr/include/libio.h, line 416:	N107 -{int __underflow(_IO_FILE *);}-> N108
/usr/include/libio.h, line 417:	N108 -{int __uflow(_IO_FILE *);}-> N109
/usr/include/libio.h, line 418:	N109 -{int __overflow(_IO_FILE *, int);}-> N110
/usr/include/libio.h, line 460:	N110 -{int _IO_getc(_IO_FILE *__fp);}-> N111
/usr/include/libio.h, line 461:	N111 -{int _IO_putc(int __c, _IO_FILE *__fp);}-> N112
/usr/include/libio.h, line 462:	N112 -{int _IO_feof(_IO_FILE *__fp);}-> N113
/usr/include/libio.h, line 463:	N113 -{int _IO_ferror(_IO_FILE *__fp);}-> N114
/usr/include/libio.h, line 465:	N114 -{int _IO_peekc_locked(_IO_FILE *__fp);}-> N115
/usr/include/libio.h, line 471:	N115 -{void _IO_flockfile(_IO_FILE *);}-> N116
/usr/include/libio.h, line 472:	N116 -{void _IO_funlockfile(_IO_FILE *);}-> N117
/usr/include/libio.h, line 473:	N117 -{int _IO_ftrylockfile(_IO_FILE *);}-> N118
/usr/include/libio.h, lines 490-491:	N118 -{int _IO_vfscanf(_IO_FILE *, const char *, __gnuc_va_list , int *);}-> N119
/usr/include/libio.h, lines 492-493:	N119 -{int _IO_vfprintf(_IO_FILE *, const char *, __gnuc_va_list );}-> N120
/usr/include/libio.h, line 494:	N120 -{__ssize_t  _IO_padn(_IO_FILE *, int, __ssize_t );}-> N121
/usr/include/libio.h, line 495:	N121 -{size_t  _IO_sgetn(_IO_FILE *, void *, size_t );}-> N122
/usr/include/libio.h, line 497:	N122 -{__off64_t  _IO_seekoff(_IO_FILE *, __off64_t , int, int);}-> N123
/usr/include/libio.h, line 498:	N123 -{__off64_t  _IO_seekpos(_IO_FILE *, __off64_t , int);}-> N124
/usr/include/libio.h, line 500:	N124 -{void _IO_free_backup_area(_IO_FILE *);}-> N125
/usr/include/stdio.h, line 91:	N125 -{typedef _G_fpos_t fpos_t;}-> N126
/usr/include/stdio.h, line 145:	N126 -{extern struct _IO_FILE *stdin;}-> N127
/usr/include/stdio.h, line 146:	N127 -{extern struct _IO_FILE *stdout;}-> N128
/usr/include/stdio.h, line 147:	N128 -{extern struct _IO_FILE *stderr;}-> N129
/usr/include/stdio.h, line 155:	N129 -{int remove(const char *__filename);}-> N130
/usr/include/stdio.h, line 157:	N130 -{int rename(const char *__old, const char *__new);}-> N131
/usr/include/stdio.h, lines 162-163:	N131 -{int renameat(int __oldfd, const char *__old, int __newfd, const char *__new);}-> N132
/usr/include/stdio.h, line 172:	N132 -{FILE * tmpfile();}-> N133
/usr/include/stdio.h, line 186:	N133 -{char * tmpnam(char *__s);}-> N134
/usr/include/stdio.h, line 192:	N134 -{char * tmpnam_r(char *__s);}-> N135
/usr/include/stdio.h, lines 204-205:	N135 -{char * tempnam(const char *__dir, const char *__pfx);}-> N136
/usr/include/stdio.h, line 214:	N136 -{int fclose(FILE *__stream);}-> N137
/usr/include/stdio.h, line 219:	N137 -{int fflush(FILE *__stream);}-> N138
/usr/include/stdio.h, line 229:	N138 -{int fflush_unlocked(FILE *__stream);}-> N139
/usr/include/stdio.h, lines 249-250:	N139 -{FILE * fopen(const char *__filename, const char *__modes);}-> N140
/usr/include/stdio.h, lines 255-257:	N140 -{FILE * freopen(const char *__filename, const char *__modes, FILE *__stream);}-> N141
/usr/include/stdio.h, line 283:	N141 -{FILE * fdopen(int __fd, const char *__modes);}-> N142
/usr/include/stdio.h, lines 296-297:	N142 -{FILE * fmemopen(void *__s, size_t __len, const char *__modes);}-> N143
/usr/include/stdio.h, line 302:	N143 -{FILE * open_memstream(char **__bufloc, size_t *__sizeloc);}-> N144
/usr/include/stdio.h, line 309:	N144 -{void setbuf(FILE *__stream, char *__buf);}-> N145
/usr/include/stdio.h, lines 313-314:	N145 -{int setvbuf(FILE *__stream, char *__buf, int __modes, size_t __n);}-> N146
/usr/include/stdio.h, lines 320-321:	N146 -{void setbuffer(FILE *__stream, char *__buf, size_t __size);}-> N147
/usr/include/stdio.h, line 324:	N147 -{void setlinebuf(FILE *__stream);}-> N148
/usr/include/stdio.h, lines 333-334:	N148 -{int fprintf(FILE *__stream, const char *__format, ...);}-> N149
/usr/include/stdio.h, line 339:	N149 -{int printf(const char *__format, ...);}-> N150
/usr/include/stdio.h, lines 341-342:	N150 -{int sprintf(char *__s, const char *__format, ...);}-> N151
/usr/include/stdio.h, lines 348-349:	N151 -{int vfprintf(FILE *__s, const char *__format, __gnuc_va_list __arg);}-> N152
/usr/include/stdio.h, line 354:	N152 -{int vprintf(const char *__format, __gnuc_va_list __arg);}-> N153
/usr/include/stdio.h, lines 356-357:	N153 -{int vsprintf(char *__s, const char *__format, __gnuc_va_list __arg);}-> N154
/usr/include/stdio.h, lines 363-365:	N154 -{int snprintf(char *__s, size_t __maxlen, const char *__format, ...);}-> N155
/usr/include/stdio.h, lines 367-369:	N155 -{int vsnprintf(char *__s, size_t __maxlen, const char *__format, __gnuc_va_list __arg);}-> N156
/usr/include/stdio.h, lines 394-396:	N156 -{int vdprintf(int __fd, const char *__fmt, __gnuc_va_list __arg);}-> N157
/usr/include/stdio.h, lines 397-398:	N157 -{int dprintf(int __fd, const char *__fmt, ...);}-> N158
/usr/include/stdio.h, lines 407-408:	N158 -{int fscanf(FILE *__stream, const char *__format, ...);}-> N159
/usr/include/stdio.h, line 413:	N159 -{int scanf(const char *__format, ...);}-> N160
/usr/include/stdio.h, lines 415-416:	N160 -{int sscanf(const char *__s, const char *__format, ...);}-> N161
/usr/include/stdio.h, lines 453-455:	N161 -{int vfscanf(FILE *__s, const char *__format, __gnuc_va_list __arg);}-> N162
/usr/include/stdio.h, lines 461-462:	N162 -{int vscanf(const char *__format, __gnuc_va_list __arg);}-> N163
/usr/include/stdio.h, lines 465-467:	N163 -{int vsscanf(const char *__s, const char *__format, __gnuc_va_list __arg);}-> N164
/usr/include/stdio.h, line 513:	N164 -{int fgetc(FILE *__stream);}-> N165
/usr/include/stdio.h, line 514:	N165 -{int getc(FILE *__stream);}-> N166
/usr/include/stdio.h, line 520:	N166 -{int getchar();}-> N167
/usr/include/stdio.h, line 532:	N167 -{int getc_unlocked(FILE *__stream);}-> N168
/usr/include/stdio.h, line 533:	N168 -{int getchar_unlocked();}-> N169
/usr/include/stdio.h, line 543:	N169 -{int fgetc_unlocked(FILE *__stream);}-> N170
/usr/include/stdio.h, line 555:	N170 -{int fputc(int __c, FILE *__stream);}-> N171
/usr/include/stdio.h, line 556:	N171 -{int putc(int __c, FILE *__stream);}-> N172
/usr/include/stdio.h, line 562:	N172 -{int putchar(int __c);}-> N173
/usr/include/stdio.h, line 576:	N173 -{int fputc_unlocked(int __c, FILE *__stream);}-> N174
/usr/include/stdio.h, line 584:	N174 -{int putc_unlocked(int __c, FILE *__stream);}-> N175
/usr/include/stdio.h, line 585:	N175 -{int putchar_unlocked(int __c);}-> N176
/usr/include/stdio.h, line 592:	N176 -{int getw(FILE *__stream);}-> N177
/usr/include/stdio.h, line 595:	N177 -{int putw(int __w, FILE *__stream);}-> N178
/usr/include/stdio.h, lines 604-605:	N178 -{char * fgets(char *__s, int __n, FILE *__stream);}-> N179
/usr/include/stdio.h, line 612:	N179 -{char * gets(char *__s);}-> N180
/usr/include/stdio.h, lines 638-640:	N180 -{__ssize_t  __getdelim(char **__lineptr, size_t *__n, int __delimiter, FILE *__stream);}-> N181
/usr/include/stdio.h, lines 641-643:	N181 -{__ssize_t  getdelim(char **__lineptr, size_t *__n, int __delimiter, FILE *__stream);}-> N182
/usr/include/stdio.h, lines 651-653:	N182 -{__ssize_t  getline(char **__lineptr, size_t *__n, FILE *__stream);}-> N183
/usr/include/stdio.h, line 662:	N183 -{int fputs(const char *__s, FILE *__stream);}-> N184
/usr/include/stdio.h, line 668:	N184 -{int puts(const char *__s);}-> N185
/usr/include/stdio.h, line 675:	N185 -{int ungetc(int __c, FILE *__stream);}-> N186
/usr/include/stdio.h, lines 682-683:	N186 -{size_t  fread(void *__ptr, size_t __size, size_t __n, FILE *__stream);}-> N187
/usr/include/stdio.h, lines 688-689:	N187 -{size_t  fwrite(const void *__ptr, size_t __size, size_t __n, FILE *__s);}-> N188
/usr/include/stdio.h, lines 710-711:	N188 -{size_t  fread_unlocked(void *__ptr, size_t __size, size_t __n, FILE *__stream);}-> N189
/usr/include/stdio.h, lines 712-713:	N189 -{size_t  fwrite_unlocked(const void *__ptr, size_t __size, size_t __n, FILE *__stream);}-> N190
/usr/include/stdio.h, line 722:	N190 -{int fseek(FILE *__stream, long int __off, int __whence);}-> N191
/usr/include/stdio.h, line 727:	N191 -{long int ftell(FILE *__stream);}-> N192
/usr/include/stdio.h, line 732:	N192 -{void rewind(FILE *__stream);}-> N193
/usr/include/stdio.h, line 746:	N193 -{int fseeko(FILE *__stream, __off_t __off, int __whence);}-> N194
/usr/include/stdio.h, line 751:	N194 -{__off_t  ftello(FILE *__stream);}-> N195
/usr/include/stdio.h, line 771:	N195 -{int fgetpos(FILE *__stream, fpos_t *__pos);}-> N196
/usr/include/stdio.h, line 776:	N196 -{int fsetpos(FILE *__stream, const fpos_t *__pos);}-> N197
/usr/include/stdio.h, line 799:	N197 -{void clearerr(FILE *__stream);}-> N198
/usr/include/stdio.h, line 801:	N198 -{int feof(FILE *__stream);}-> N199
/usr/include/stdio.h, line 803:	N199 -{int ferror(FILE *__stream);}-> N200
/usr/include/stdio.h, line 808:	N200 -{void clearerr_unlocked(FILE *__stream);}-> N201
/usr/include/stdio.h, line 809:	N201 -{int feof_unlocked(FILE *__stream);}-> N202
/usr/include/stdio.h, line 810:	N202 -{int ferror_unlocked(FILE *__stream);}-> N203
/usr/include/stdio.h, line 819:	N203 -{void perror(const char *__s);}-> N204
/usr/include/bits/sys_errlist.h, line 27:	N204 -{extern int sys_nerr;}-> N205
/usr/include/bits/sys_errlist.h, line 28:	N205 -{extern const const char *sys_errlist[];}-> N206
/usr/include/stdio.h, line 831:	N206 -{int fileno(FILE *__stream);}-> N207
/usr/include/stdio.h, line 836:	N207 -{int fileno_unlocked(FILE *__stream);}-> N208
/usr/include/stdio.h, line 846:	N208 -{FILE * popen(const char *__command, const char *__modes);}-> N209
/usr/include/stdio.h, line 852:	N209 -{int pclose(FILE *__stream);}-> N210
/usr/include/stdio.h, line 858:	N210 -{char * ctermid(char *__s);}-> N211
/usr/include/stdio.h, line 886:	N211 -{void flockfile(FILE *__stream);}-> N212
/usr/include/stdio.h, line 890:	N212 -{int ftrylockfile(FILE *__stream);}-> N213
/usr/include/stdio.h, line 893:	N213 -{void funlockfile(FILE *__stream);}-> N214
/usr/include/assert.h, lines 71-73:	N214 -{void __assert_fail(const char *__assertion, const char *__file, unsigned int __line, const char *__function);}-> N215
/usr/include/assert.h, lines 76-79:	N215 -{void __assert_perror_fail(int __errnum, const char *__file, unsigned int __line, const char *__function);}-> N216
/usr/include/assert.h, lines 84-85:	N216 -{void __assert(const char *__assertion, const char *__file, int __line);}-> N217
/usr/include/assert.h, line 90:	N217 -{int Num = 6;}-> N218
	Num = 6;
lines 4-8:	N218 -{void M();}-> N219
lines 9-12:	N219 -{void F();}-> N220
lines 13-22:	N220 -{void linklist();}-> N221
lines 23-26:	N221 -{int main();}-> N222
none:	N222 -{Function start dummy edge}-> N24
line 25:	N24 -{linklist()}-> N12
none:	N12 -{Function start dummy edge}-> N13
line 15:	N13 -{M()}-> N1
none:	N1 -{Function start dummy edge}-> N2
line 6:	N2 -{Num = Num - 1;}-> N3
	Num = 5;
line 7:	N3 -{[Num >= 0]}-> N4
	Num = 5;
line 7:	N4 -{(void)0;}-> N6
none:	N6 -{default return}-> N0
line 15:	N0 -{Return edge from M to linklist}-> N14
lines 16-17:	N14 -{Label: l1}-> N15
line 17:	N15 -{M()}-> N1
none:	N1 -{Function start dummy edge}-> N2
line 6:	N2 -{Num = Num - 1;}-> N3
	Num = 4;
line 7:	N3 -{[Num >= 0]}-> N4
	Num = 4;
line 7:	N4 -{(void)0;}-> N6
none:	N6 -{default return}-> N0
line 17:	N0 -{Return edge from M to linklist}-> N16
line 18:	N16 -{Goto: l1}-> N15
line 17:	N15 -{M()}-> N1
none:	N1 -{Function start dummy edge}-> N2
line 6:	N2 -{Num = Num - 1;}-> N3
	Num = 3;
line 7:	N3 -{[Num >= 0]}-> N4
	Num = 3;
line 7:	N4 -{(void)0;}-> N6
none:	N6 -{default return}-> N0
line 17:	N0 -{Return edge from M to linklist}-> N16
line 18:	N16 -{Goto: l1}-> N15
line 17:	N15 -{M()}-> N1
none:	N1 -{Function start dummy edge}-> N2
line 6:	N2 -{Num = Num - 1;}-> N3
	Num = 2;
line 7:	N3 -{[Num >= 0]}-> N4
	Num = 2;
line 7:	N4 -{(void)0;}-> N6
none:	N6 -{default return}-> N0
line 17:	N0 -{Return edge from M to linklist}-> N16
line 18:	N16 -{Goto: l1}-> N15
line 17:	N15 -{M()}-> N1
none:	N1 -{Function start dummy edge}-> N2
line 6:	N2 -{Num = Num - 1;}-> N3
	Num = 1;
line 7:	N3 -{[Num >= 0]}-> N4
	Num = 1;
line 7:	N4 -{(void)0;}-> N6
none:	N6 -{default return}-> N0
line 17:	N0 -{Return edge from M to linklist}-> N16
line 18:	N16 -{Goto: l1}-> N15
line 17:	N15 -{M()}-> N1
none:	N1 -{Function start dummy edge}-> N2
line 6:	N2 -{Num = Num - 1;}-> N3
	Num = 0;
line 7:	N3 -{[Num >= 0]}-> N4
	Num = 0;
line 7:	N4 -{(void)0;}-> N6
none:	N6 -{default return}-> N0
line 17:	N0 -{Return edge from M to linklist}-> N16
line 18:	N16 -{Goto: l1}-> N15
line 17:	N15 -{M()}-> N1
none:	N1 -{Function start dummy edge}-> N2
line 6:	N2 -{Num = Num - 1;}-> N3
	Num = -1;
line 7:	N3 -{[!(Num >= 0)]}-> N5
	Num = -1;
line 7:	N5 -{__assert_fail("Num >= 0", "tf/behavior.c", 7, "__PRETTY_FUNCTION__");}-> N6
